p tw 24 63
0 1
0 10
0 20
0 15
0 12
1 14
1 13
1 16
1 5
2 3
2 19
2 12
2 18
2 21
3 4
3 15
3 13
3 6
4 5
4 8
4 15
4 21
4 18
4 14
5 11
5 15
5 16
5 13
5 23
6 7
6 10
6 19
6 15
6 21
7 8
7 12
7 17
7 19
7 23
8 9
8 11
8 10
8 20
8 22
9 11
9 13
10 15
10 23
11 12
11 22
12 13
12 17
13 21
13 19
14 19
14 21
14 23
15 16
15 17
15 20
16 19
17 18
18 19
